Route #1: 26 104 103 10 34 102 5 25 85 78
Route #2: 6 47 90 68 35 46 39 109
Route #3: 31 57 56 77 84 23 62 61 105 94
Route #4: 20 59 13 64 73 11 101 63 50
Route #5: 70 110 19 7 92 4 15
Route #6: 28 66 60 96 18 32 29 40 53
Route #7: 106 107 43 98 93 21 75 33 80
Route #8: 88 27 54 16 67 99 12 86 52
Route #9: 72 81 3 44 65 37 100
Route #10: 2 79 30 45 71 17 91
Route #11: 51 55 97 89 76 22 42 69
Route #12: 24 82 95 38 8 108 83 49
Route #13: 14 58 36 74 87 48 41 9
